167 199 189 65 9 43 145 34 160 108 136 64 98 22 8 88 172 133 165 44 183 85 67 130 174 162 164 97 63 124 192 101 83 100 139 17 93 148 26 109 193 29 180 137 161 59 51 132 66 117 116 86 99 123 110 2 5 196 82 60 168 55 36 58 31 56 155 105 158 75 13 143 19 45 52 74 126 57 182 140 91 135 106 197 127 77 71 163 84 104 7 69 30 195 94 173 114 81 80 76 62 118 190 18 166 156 23 87 32 113 176 187 50 128 73 188 61 177 179 37 89 144 38 46 175 111 35 12 10 39 147 171 178 72 157 170 184 122 3 146 153 185 11 24 103 20 149 154 129 152 150 92 6 134 138 181 15 142 41 112 27 131 54 53 79 78 40 47 95 141 194 120 169 42 159 48 16 90 151 0 68 14 33 4 70 96 49 125 21 25 186 121 28 102 1 198 115 107 191 119 

